[[58, 72, 39, 12, 40, 17, 51, 3, 44, 32, 9, 25, 55, 18, 50, 24, 49, 16, 63, 23, 56, 43, 41, 42], [64, 22, 62, 73, 33, 2, 74, 28, 61, 21, 47, 69, 36, 71, 60, 70, 20, 37, 15, 57, 5, 48, 29], [45, 30, 4, 68, 6, 75, 76, 26, 67, 34, 46, 52, 27, 13, 54, 19, 8, 7, 35, 53, 14, 59, 11, 66, 65, 38, 10, 31]]